objective value:                                   -5
t_n_10                                              1 	(obj:-1)
t_n_885                                             1 	(obj:-1)
t_n_958                                             1 	(obj:-1)
t_n_1373                                            1 	(obj:-1)
t_n_1511                                            1 	(obj:-1)
